[[72, 81, 71, 80, 70, 69, 68, 78, 77, 79, 88, 89, 90, 99, 98, 97, 96, 87, 95, 86, 85], [94, 93, 92, 91, 82, 83, 84, 73, 76, 75, 74, 64, 65, 66, 67, 59, 58, 49, 57, 56], [55, 47, 46, 38, 48, 39, 40, 41, 32, 31, 30, 29, 37, 28, 19, 21, 22, 20, 13], [11, 10, 2, 12, 3, 4, 14, 5, 6, 7, 8, 9, 18, 17, 16, 15, 23], [24, 25, 26, 27, 35, 33, 42, 43, 34, 36, 44, 45, 50, 51, 60, 52, 53, 54, 63, 61, 62]]